(set-logic ALL)
(declare-const numerator_VAR Int)
(declare-const denominator_VAR Int)
(declare-const limit_VAR Int)
(assert (< 1 (+ limit_VAR 1)))
(assert (not (= denominator_VAR 0)))
(assert (not (= denominator_VAR 0)))
(assert (< 2 (+ limit_VAR 1)))
(assert (not (= denominator_VAR 0)))
(assert (not (= denominator_VAR 0)))
(assert (< 3 (+ limit_VAR 1)))
(assert (not (= denominator_VAR 0)))
(assert (not (= denominator_VAR 0)))
(assert (< 4 (+ limit_VAR 1)))
(assert (not (= denominator_VAR 0)))
(assert (not (= denominator_VAR 0)))
(assert (< 5 (+ limit_VAR 1)))
(assert (not (= denominator_VAR 0)))
(assert (not (= denominator_VAR 0)))
(assert (< 6 (+ limit_VAR 1)))
(assert (not (= denominator_VAR 0)))
(assert (not (= denominator_VAR 0)))
(assert (< 7 (+ limit_VAR 1)))
(assert (not (= denominator_VAR 0)))
(assert (not (= denominator_VAR 0)))
(assert (< 8 (+ limit_VAR 1)))
(assert (not (= denominator_VAR 0)))
(assert (not (= denominator_VAR 0)))
(assert (< 9 (+ limit_VAR 1)))
(assert (not (= denominator_VAR 0)))
(assert (not (= denominator_VAR 0)))
(assert (< 10 (+ limit_VAR 1)))
(assert (not (= denominator_VAR 0)))
(assert (not (= denominator_VAR 0)))
(assert (< 11 (+ limit_VAR 1)))
(assert (not (= denominator_VAR 0)))
(assert (not (= denominator_VAR 0)))
(assert (< 12 (+ limit_VAR 1)))
(assert (not (= denominator_VAR 0)))
(assert (not (= denominator_VAR 0)))
(assert (< 13 (+ limit_VAR 1)))
(assert (not (= denominator_VAR 0)))
(assert (not (= denominator_VAR 0)))
(assert (< 14 (+ limit_VAR 1)))
(assert (not (= denominator_VAR 0)))
(assert (not (= denominator_VAR 0)))
(assert (< 15 (+ limit_VAR 1)))
(assert (not (= denominator_VAR 0)))
(assert (not (= denominator_VAR 0)))
(assert (< 16 (+ limit_VAR 1)))
(assert (not (= denominator_VAR 0)))
(assert (not (= denominator_VAR 0)))
(assert (< 17 (+ limit_VAR 1)))
(assert (not (= denominator_VAR 0)))
(assert (not (= denominator_VAR 0)))
(assert (< 18 (+ limit_VAR 1)))
(assert (not (= denominator_VAR 0)))
(assert (not (= denominator_VAR 0)))
(assert (< 19 (+ limit_VAR 1)))
(assert (not (= denominator_VAR 0)))
(assert (not (= denominator_VAR 0)))
(assert (< 20 (+ limit_VAR 1)))
(assert (not (= denominator_VAR 0)))
(assert (not (= denominator_VAR 0)))
(assert (< 21 (+ limit_VAR 1)))
(assert (not (= denominator_VAR 0)))
(assert (not (= denominator_VAR 0)))
(assert (< 22 (+ limit_VAR 1)))
(assert (not (= denominator_VAR 0)))
(assert (not (= denominator_VAR 0)))
(assert (< 23 (+ limit_VAR 1)))
(assert (not (= denominator_VAR 0)))
(assert (not (= denominator_VAR 0)))
(assert (< 24 (+ limit_VAR 1)))
(assert (not (= denominator_VAR 0)))
(assert (not (= denominator_VAR 0)))
(assert (< 25 (+ limit_VAR 1)))
(assert (not (= denominator_VAR 0)))
(assert (not (= denominator_VAR 0)))
(assert (< 26 (+ limit_VAR 1)))
(assert (not (= denominator_VAR 0)))
(assert (not (= denominator_VAR 0)))
(assert (< 27 (+ limit_VAR 1)))
(assert (not (= denominator_VAR 0)))
(assert (not (= denominator_VAR 0)))
(assert (< 28 (+ limit_VAR 1)))
(assert (not (= denominator_VAR 0)))
(assert (not (= denominator_VAR 0)))
(assert (< 29 (+ limit_VAR 1)))
(assert (not (= denominator_VAR 0)))
(assert (not (= denominator_VAR 0)))
(assert (< 30 (+ limit_VAR 1)))
(assert (not (= denominator_VAR 0)))
(assert (not (= denominator_VAR 0)))
(assert (< 31 (+ limit_VAR 1)))
(assert (not (= denominator_VAR 0)))
(assert (not (= denominator_VAR 0)))
(assert (< 32 (+ limit_VAR 1)))
(assert (not (= denominator_VAR 0)))
(assert (not (= denominator_VAR 0)))
(assert (< 33 (+ limit_VAR 1)))
(assert (not (= denominator_VAR 0)))
(assert (not (= denominator_VAR 0)))
(assert (< 34 (+ limit_VAR 1)))
(assert (not (= denominator_VAR 0)))
(assert (not (= denominator_VAR 0)))
(assert (< 35 (+ limit_VAR 1)))
(assert (not (= denominator_VAR 0)))
(assert (not (= denominator_VAR 0)))
(assert (< 36 (+ limit_VAR 1)))
(assert (not (= denominator_VAR 0)))
(assert (not (= denominator_VAR 0)))
(assert (< 37 (+ limit_VAR 1)))
(assert (not (= denominator_VAR 0)))
(assert (not (= denominator_VAR 0)))
(assert (< 38 (+ limit_VAR 1)))
(assert (not (= denominator_VAR 0)))
(assert (not (= denominator_VAR 0)))
(assert (< 39 (+ limit_VAR 1)))
(assert (not (= denominator_VAR 0)))
(assert (not (= denominator_VAR 0)))
(assert (< 40 (+ limit_VAR 1)))
(assert (not (= denominator_VAR 0)))
(assert (not (= denominator_VAR 0)))
(assert (< 41 (+ limit_VAR 1)))
(assert (not (= denominator_VAR 0)))
(assert (not (= denominator_VAR 0)))
(assert (< 42 (+ limit_VAR 1)))
(assert (not (= denominator_VAR 0)))
(assert (not (= denominator_VAR 0)))
(assert (< 43 (+ limit_VAR 1)))
(assert (not (= denominator_VAR 0)))
(assert (not (= denominator_VAR 0)))
(assert (< 44 (+ limit_VAR 1)))
(assert (not (= denominator_VAR 0)))
(assert (not (= denominator_VAR 0)))
(assert (< 45 (+ limit_VAR 1)))
(assert (not (= denominator_VAR 0)))
(assert (not (= denominator_VAR 0)))
(assert (< 46 (+ limit_VAR 1)))
(assert (not (= denominator_VAR 0)))
(assert (not (= denominator_VAR 0)))
(assert (< 47 (+ limit_VAR 1)))
(assert (not (= denominator_VAR 0)))
(assert (not (= denominator_VAR 0)))
(assert (< 48 (+ limit_VAR 1)))
(assert (not (= denominator_VAR 0)))
(assert (not (= denominator_VAR 0)))
(assert (< 49 (+ limit_VAR 1)))
(assert (not (= denominator_VAR 0)))
(assert (not (= denominator_VAR 0)))
(assert (< 50 (+ limit_VAR 1)))
(assert (not (= denominator_VAR 0)))
(assert (not (= denominator_VAR 0)))
(assert (< 51 (+ limit_VAR 1)))
(assert (not (= denominator_VAR 0)))
(assert (not (= denominator_VAR 0)))
(assert (< 52 (+ limit_VAR 1)))
(assert (not (= denominator_VAR 0)))
(assert (not (= denominator_VAR 0)))
(assert (< 53 (+ limit_VAR 1)))
(assert (not (= denominator_VAR 0)))
(assert (not (= denominator_VAR 0)))
(assert (< 54 (+ limit_VAR 1)))
(assert (not (= denominator_VAR 0)))
(assert (not (= denominator_VAR 0)))
(assert (< 55 (+ limit_VAR 1)))
(assert (not (= denominator_VAR 0)))
(assert (not (= denominator_VAR 0)))
(assert (< 56 (+ limit_VAR 1)))
(assert (not (= denominator_VAR 0)))
(assert (not (= denominator_VAR 0)))
(assert (< 57 (+ limit_VAR 1)))
(assert (not (= denominator_VAR 0)))
(assert (not (= denominator_VAR 0)))
(assert (< 58 (+ limit_VAR 1)))
(assert (not (= denominator_VAR 0)))
(assert (not (= denominator_VAR 0)))
(assert (< 59 (+ limit_VAR 1)))
(assert (not (= denominator_VAR 0)))
(assert (not (= denominator_VAR 0)))
(assert (< 60 (+ limit_VAR 1)))
(assert (not (= denominator_VAR 0)))
(assert (not (= denominator_VAR 0)))
(assert (< 61 (+ limit_VAR 1)))
(assert (not (= denominator_VAR 0)))
(assert (not (= denominator_VAR 0)))
(assert (< 62 (+ limit_VAR 1)))
(assert (not (= denominator_VAR 0)))
(assert (not (= denominator_VAR 0)))
(assert (< 63 (+ limit_VAR 1)))
(assert (not (= denominator_VAR 0)))
(assert (not (= denominator_VAR 0)))
(assert (< 64 (+ limit_VAR 1)))
(assert (not (= denominator_VAR 0)))
(assert (not (= denominator_VAR 0)))
(assert (< 65 (+ limit_VAR 1)))
(assert (not (= denominator_VAR 0)))
(assert (not (= denominator_VAR 0)))
(assert (< 66 (+ limit_VAR 1)))
(assert (not (= denominator_VAR 0)))
(assert (not (= denominator_VAR 0)))
(assert (< 67 (+ limit_VAR 1)))
(assert (not (= denominator_VAR 0)))
(assert (not (= denominator_VAR 0)))
(assert (< 68 (+ limit_VAR 1)))
(assert (not (= denominator_VAR 0)))
(assert (not (= denominator_VAR 0)))
(assert (< 69 (+ limit_VAR 1)))
(assert (not (= denominator_VAR 0)))
(assert (not (= denominator_VAR 0)))
(assert (< 70 (+ limit_VAR 1)))
(assert (not (= denominator_VAR 0)))
(assert (not (= denominator_VAR 0)))
(assert (< 71 (+ limit_VAR 1)))
(assert (not (= denominator_VAR 0)))
(assert (not (= denominator_VAR 0)))
(assert (< 72 (+ limit_VAR 1)))
(assert (not (= denominator_VAR 0)))
(assert (not (= denominator_VAR 0)))
(assert (< 73 (+ limit_VAR 1)))
(assert (not (= denominator_VAR 0)))
(assert (not (= denominator_VAR 0)))
(assert (< 74 (+ limit_VAR 1)))
(assert (not (= denominator_VAR 0)))
(assert (not (= denominator_VAR 0)))
(assert (< 75 (+ limit_VAR 1)))
(assert (not (= denominator_VAR 0)))
(assert (not (= denominator_VAR 0)))
(assert (< 76 (+ limit_VAR 1)))
(assert (not (= denominator_VAR 0)))
(assert (not (= denominator_VAR 0)))
(assert (< 77 (+ limit_VAR 1)))
(assert (not (= denominator_VAR 0)))
(assert (not (= denominator_VAR 0)))
(assert (< 78 (+ limit_VAR 1)))
(assert (not (= denominator_VAR 0)))
(assert (not (= denominator_VAR 0)))
(assert (< 79 (+ limit_VAR 1)))
(assert (not (= denominator_VAR 0)))
(assert (not (= denominator_VAR 0)))
(assert (< 80 (+ limit_VAR 1)))
(assert (not (= denominator_VAR 0)))
(assert (not (= denominator_VAR 0)))
(assert (< 81 (+ limit_VAR 1)))
(assert (not (= denominator_VAR 0)))
(assert (not (= denominator_VAR 0)))
(assert (< 82 (+ limit_VAR 1)))
(assert (not (= denominator_VAR 0)))
(assert (not (= denominator_VAR 0)))
(assert (< 83 (+ limit_VAR 1)))
(assert (not (= denominator_VAR 0)))
(assert (not (= denominator_VAR 0)))
(assert (< 84 (+ limit_VAR 1)))
(assert (not (= denominator_VAR 0)))
(assert (not (= denominator_VAR 0)))
(assert (< 85 (+ limit_VAR 1)))
(assert (not (= denominator_VAR 0)))
(assert (not (= denominator_VAR 0)))
(assert (< 86 (+ limit_VAR 1)))
(assert (not (= denominator_VAR 0)))
(assert (not (= denominator_VAR 0)))
(assert (< 87 (+ limit_VAR 1)))
(assert (not (= denominator_VAR 0)))
(assert (not (= denominator_VAR 0)))
(assert (< 88 (+ limit_VAR 1)))
(assert (not (= denominator_VAR 0)))
(assert (not (= denominator_VAR 0)))
(assert (< 89 (+ limit_VAR 1)))
(assert (not (= denominator_VAR 0)))
(assert (not (= denominator_VAR 0)))
(assert (< 90 (+ limit_VAR 1)))
(assert (not (= denominator_VAR 0)))
(assert (not (= denominator_VAR 0)))
(assert (< 91 (+ limit_VAR 1)))
(assert (not (= denominator_VAR 0)))
(assert (not (= denominator_VAR 0)))
(assert (< 92 (+ limit_VAR 1)))
(assert (not (= denominator_VAR 0)))
(assert (not (= denominator_VAR 0)))
(assert (< 93 (+ limit_VAR 1)))
(assert (not (= denominator_VAR 0)))
(assert (not (= denominator_VAR 0)))
(assert (< 94 (+ limit_VAR 1)))
(assert (not (= denominator_VAR 0)))
(assert (not (= denominator_VAR 0)))
(assert (< 95 (+ limit_VAR 1)))
(assert (not (= denominator_VAR 0)))
(assert (not (= denominator_VAR 0)))
(assert (< 96 (+ limit_VAR 1)))
(assert (not (= denominator_VAR 0)))
(assert (not (= denominator_VAR 0)))
(assert (< 97 (+ limit_VAR 1)))
(assert (not (= denominator_VAR 0)))
(assert (not (= denominator_VAR 0)))
(assert (< 98 (+ limit_VAR 1)))
(assert (not (= denominator_VAR 0)))
(assert (not (= denominator_VAR 0)))
(assert (< 99 (+ limit_VAR 1)))
(assert (not (= denominator_VAR 0)))
(assert (not (= denominator_VAR 0)))
(assert (< 100 (+ limit_VAR 1)))
(assert (not (= denominator_VAR 0)))
(assert (not (= denominator_VAR 0)))
(assert (< 101 (+ limit_VAR 1)))
(assert (not (= denominator_VAR 0)))
(assert (not (= denominator_VAR 0)))
(assert (< 102 (+ limit_VAR 1)))
(assert (not (= denominator_VAR 0)))
(assert (not (= denominator_VAR 0)))
(assert (< 103 (+ limit_VAR 1)))
(assert (not (= denominator_VAR 0)))
(assert (not (= denominator_VAR 0)))
(assert (< 104 (+ limit_VAR 1)))
(assert (not (= denominator_VAR 0)))
(assert (not (= denominator_VAR 0)))
(assert (< 105 (+ limit_VAR 1)))
(assert (not (= denominator_VAR 0)))
(assert (not (= denominator_VAR 0)))
(assert (< 106 (+ limit_VAR 1)))
(assert (not (= denominator_VAR 0)))
(assert (not (= denominator_VAR 0)))
(assert (< 107 (+ limit_VAR 1)))
(assert (not (= denominator_VAR 0)))
(assert (not (= denominator_VAR 0)))
(assert (< 108 (+ limit_VAR 1)))
(assert (not (= denominator_VAR 0)))
(assert (not (= denominator_VAR 0)))
(assert (< 109 (+ limit_VAR 1)))
(assert (not (= denominator_VAR 0)))
(assert (not (= denominator_VAR 0)))
(assert (< 110 (+ limit_VAR 1)))
(assert (not (= denominator_VAR 0)))
(assert (not (= denominator_VAR 0)))
(assert (< 111 (+ limit_VAR 1)))
(assert (not (= denominator_VAR 0)))
(assert (not (= denominator_VAR 0)))
(assert (< 112 (+ limit_VAR 1)))
(assert (not (= denominator_VAR 0)))
(assert (not (= denominator_VAR 0)))
(assert (< 113 (+ limit_VAR 1)))
(assert (not (= denominator_VAR 0)))
(assert (not (= denominator_VAR 0)))
(assert (< 114 (+ limit_VAR 1)))
(assert (not (= denominator_VAR 0)))
(assert (not (= denominator_VAR 0)))
(assert (< 115 (+ limit_VAR 1)))
(assert (not (= denominator_VAR 0)))
(assert (not (= denominator_VAR 0)))
(assert (< 116 (+ limit_VAR 1)))
(assert (not (= denominator_VAR 0)))
(assert (not (= denominator_VAR 0)))
(assert (< 117 (+ limit_VAR 1)))
(assert (not (= denominator_VAR 0)))
(assert (not (= denominator_VAR 0)))
(assert (< 118 (+ limit_VAR 1)))
(assert (not (= denominator_VAR 0)))
(assert (not (= denominator_VAR 0)))
(assert (< 119 (+ limit_VAR 1)))
(assert (not (= denominator_VAR 0)))
(assert (not (= denominator_VAR 0)))
(assert (< 120 (+ limit_VAR 1)))
(assert (not (= denominator_VAR 0)))
(assert (not (= denominator_VAR 0)))
(assert (< 121 (+ limit_VAR 1)))
(assert (not (= denominator_VAR 0)))
(assert (not (= denominator_VAR 0)))
(assert (< 122 (+ limit_VAR 1)))
(assert (not (= denominator_VAR 0)))
(assert (not (= denominator_VAR 0)))
(assert (< 123 (+ limit_VAR 1)))
(assert (not (= denominator_VAR 0)))
(assert (not (= denominator_VAR 0)))
(assert (< 124 (+ limit_VAR 1)))
(assert (not (= denominator_VAR 0)))
(assert (not (= denominator_VAR 0)))
(assert (< 125 (+ limit_VAR 1)))
(assert (not (= denominator_VAR 0)))
(assert (not (= denominator_VAR 0)))
(assert (< 126 (+ limit_VAR 1)))
(assert (not (= denominator_VAR 0)))
(assert (not (= denominator_VAR 0)))
(assert (< 127 (+ limit_VAR 1)))
(assert (not (= denominator_VAR 0)))
(assert (not (= denominator_VAR 0)))
(assert (< 128 (+ limit_VAR 1)))
(assert (not (= denominator_VAR 0)))
(assert (not (= denominator_VAR 0)))
(assert (< 129 (+ limit_VAR 1)))
(assert (not (= denominator_VAR 0)))
(assert (not (= denominator_VAR 0)))
(assert (< 130 (+ limit_VAR 1)))
(assert (not (= denominator_VAR 0)))
(assert (not (= denominator_VAR 0)))
(assert (< 131 (+ limit_VAR 1)))
(assert (not (= denominator_VAR 0)))
(assert (not (= denominator_VAR 0)))
(assert (< 132 (+ limit_VAR 1)))
(assert (not (= denominator_VAR 0)))
(assert (not (= denominator_VAR 0)))
(assert (< 133 (+ limit_VAR 1)))
(assert (not (= denominator_VAR 0)))
(assert (not (= denominator_VAR 0)))
(assert (< 134 (+ limit_VAR 1)))
(assert (not (= denominator_VAR 0)))
(assert (not (= denominator_VAR 0)))
(assert (< 135 (+ limit_VAR 1)))
(assert (not (= denominator_VAR 0)))
(assert (not (= denominator_VAR 0)))
(assert (< 136 (+ limit_VAR 1)))
(assert (not (= denominator_VAR 0)))
(assert (not (= denominator_VAR 0)))
(assert (< 137 (+ limit_VAR 1)))
(assert (not (= denominator_VAR 0)))
(assert (not (= denominator_VAR 0)))
(assert (< 138 (+ limit_VAR 1)))
(assert (not (= denominator_VAR 0)))
(assert (not (= denominator_VAR 0)))
(assert (< 139 (+ limit_VAR 1)))
(assert (not (= denominator_VAR 0)))
(assert (not (= denominator_VAR 0)))
(assert (< 140 (+ limit_VAR 1)))
(assert (not (= denominator_VAR 0)))
(assert (not (= denominator_VAR 0)))
(assert (< 141 (+ limit_VAR 1)))
(assert (not (= denominator_VAR 0)))
(assert (not (= denominator_VAR 0)))
(assert (< 142 (+ limit_VAR 1)))
(assert (not (= denominator_VAR 0)))
(assert (not (= denominator_VAR 0)))
(assert (< 143 (+ limit_VAR 1)))
(assert (not (= denominator_VAR 0)))
(assert (not (= denominator_VAR 0)))
(assert (< 144 (+ limit_VAR 1)))
(assert (not (= denominator_VAR 0)))
(assert (not (= denominator_VAR 0)))
(assert (< 145 (+ limit_VAR 1)))
(assert (not (= denominator_VAR 0)))
(assert (not (= denominator_VAR 0)))
(assert (< 146 (+ limit_VAR 1)))
(assert (not (= denominator_VAR 0)))
(assert (not (= denominator_VAR 0)))
(assert (< 147 (+ limit_VAR 1)))
(assert (not (= denominator_VAR 0)))
(assert (not (= denominator_VAR 0)))
(assert (< 148 (+ limit_VAR 1)))
(assert (not (= denominator_VAR 0)))
(assert (not (= denominator_VAR 0)))
(assert (< 149 (+ limit_VAR 1)))
(assert (not (= denominator_VAR 0)))
(assert (not (= denominator_VAR 0)))
(assert (< 150 (+ limit_VAR 1)))
(assert (not (= denominator_VAR 0)))
(assert (not (= denominator_VAR 0)))
(assert (< 151 (+ limit_VAR 1)))
(assert (not (= denominator_VAR 0)))
(assert (not (= denominator_VAR 0)))
(assert (< 152 (+ limit_VAR 1)))
(assert (not (= denominator_VAR 0)))
(assert (not (= denominator_VAR 0)))
(assert (< 153 (+ limit_VAR 1)))
(assert (not (= denominator_VAR 0)))
(assert (not (= denominator_VAR 0)))
(assert (< 154 (+ limit_VAR 1)))
(assert (not (= denominator_VAR 0)))
(assert (not (= denominator_VAR 0)))
(assert (< 155 (+ limit_VAR 1)))
(assert (not (= denominator_VAR 0)))
(assert (not (= denominator_VAR 0)))
(assert (< 156 (+ limit_VAR 1)))
(assert (not (= denominator_VAR 0)))
(assert (not (= denominator_VAR 0)))
(assert (< 157 (+ limit_VAR 1)))
(assert (not (= denominator_VAR 0)))
(assert (not (= denominator_VAR 0)))
(assert (< 158 (+ limit_VAR 1)))
(assert (not (= denominator_VAR 0)))
(assert (not (= denominator_VAR 0)))
(assert (< 159 (+ limit_VAR 1)))
(assert (not (= denominator_VAR 0)))
(assert (not (= denominator_VAR 0)))
(assert (< 160 (+ limit_VAR 1)))
(assert (not (= denominator_VAR 0)))
(assert (not (= denominator_VAR 0)))
(assert (< 161 (+ limit_VAR 1)))
(assert (not (= denominator_VAR 0)))
(assert (not (= denominator_VAR 0)))
(assert (< 162 (+ limit_VAR 1)))
(assert (not (= denominator_VAR 0)))
(assert (not (= denominator_VAR 0)))
(assert (< 163 (+ limit_VAR 1)))
(assert (not (= denominator_VAR 0)))
(assert (not (= denominator_VAR 0)))
(assert (< 164 (+ limit_VAR 1)))
(assert (not (= denominator_VAR 0)))
(assert (not (= denominator_VAR 0)))
(assert (< 165 (+ limit_VAR 1)))
(assert (not (= denominator_VAR 0)))
(assert (not (= denominator_VAR 0)))
(assert (< 166 (+ limit_VAR 1)))
(assert (not (= denominator_VAR 0)))
(assert (not (= denominator_VAR 0)))
(assert (< 167 (+ limit_VAR 1)))
(assert (not (= denominator_VAR 0)))
(assert (not (= denominator_VAR 0)))
(assert (< 168 (+ limit_VAR 1)))
(assert (not (= denominator_VAR 0)))
(assert (not (= denominator_VAR 0)))
(assert (< 169 (+ limit_VAR 1)))
(assert (not (= denominator_VAR 0)))
(assert (not (= denominator_VAR 0)))
(assert (< 170 (+ limit_VAR 1)))
(assert (not (= denominator_VAR 0)))
(assert (not (= denominator_VAR 0)))
(assert (< 171 (+ limit_VAR 1)))
(assert (not (= denominator_VAR 0)))
(assert (not (= denominator_VAR 0)))
(assert (< 172 (+ limit_VAR 1)))
(assert (not (= denominator_VAR 0)))
(assert (not (= denominator_VAR 0)))
(assert (< 173 (+ limit_VAR 1)))
(assert (not (= denominator_VAR 0)))
(assert (not (= denominator_VAR 0)))
(assert (< 174 (+ limit_VAR 1)))
(assert (not (= denominator_VAR 0)))
(assert (not (= denominator_VAR 0)))
(assert (< 175 (+ limit_VAR 1)))
(assert (not (= denominator_VAR 0)))
(assert (not (= denominator_VAR 0)))
(assert (< 176 (+ limit_VAR 1)))
(assert (not (= denominator_VAR 0)))
(assert (not (= denominator_VAR 0)))
(assert (< 177 (+ limit_VAR 1)))
(assert (not (= denominator_VAR 0)))
(assert (not (= denominator_VAR 0)))
(assert (< 178 (+ limit_VAR 1)))
(assert (not (= denominator_VAR 0)))
(assert (not (= denominator_VAR 0)))
(assert (< 179 (+ limit_VAR 1)))
(assert (not (= denominator_VAR 0)))
(assert (not (= denominator_VAR 0)))
(assert (< 180 (+ limit_VAR 1)))
(assert (not (= denominator_VAR 0)))
(assert (not (= denominator_VAR 0)))
(assert (< 181 (+ limit_VAR 1)))
(assert (not (= denominator_VAR 0)))
(assert (not (= denominator_VAR 0)))
(assert (< 182 (+ limit_VAR 1)))
(assert (not (= denominator_VAR 0)))
(assert (not (= denominator_VAR 0)))
(assert (< 183 (+ limit_VAR 1)))
(assert (not (= denominator_VAR 0)))
(assert (not (= denominator_VAR 0)))
(assert (< 184 (+ limit_VAR 1)))
(assert (not (= denominator_VAR 0)))
(assert (not (= denominator_VAR 0)))
(assert (< 185 (+ limit_VAR 1)))
(assert (not (= denominator_VAR 0)))
(assert (not (= denominator_VAR 0)))
(assert (< 186 (+ limit_VAR 1)))
(assert (not (= denominator_VAR 0)))
(assert (not (= denominator_VAR 0)))
(assert (< 187 (+ limit_VAR 1)))
(assert (not (= denominator_VAR 0)))
(assert (not (= denominator_VAR 0)))
(assert (< 188 (+ limit_VAR 1)))
(assert (not (= denominator_VAR 0)))
(assert (not (= denominator_VAR 0)))
(assert (< 189 (+ limit_VAR 1)))
(assert (not (= denominator_VAR 0)))
(assert (not (= denominator_VAR 0)))
(assert (< 190 (+ limit_VAR 1)))
(assert (not (= denominator_VAR 0)))
(assert (not (= denominator_VAR 0)))
(assert (< 191 (+ limit_VAR 1)))
(assert (not (= denominator_VAR 0)))
(assert (not (= denominator_VAR 0)))
(assert (< 192 (+ limit_VAR 1)))
(assert (not (= denominator_VAR 0)))
(assert (not (= denominator_VAR 0)))
(assert (< 193 (+ limit_VAR 1)))
(assert (not (= denominator_VAR 0)))
(assert (not (= denominator_VAR 0)))
(assert (< 194 (+ limit_VAR 1)))
(assert (not (= denominator_VAR 0)))
(assert (not (= denominator_VAR 0)))
(assert (< 195 (+ limit_VAR 1)))
(assert (not (= denominator_VAR 0)))
(assert (not (= denominator_VAR 0)))
(assert (< 196 (+ limit_VAR 1)))
(assert (not (= denominator_VAR 0)))
(assert (not (= denominator_VAR 0)))
(assert (< 197 (+ limit_VAR 1)))
(assert (not (= denominator_VAR 0)))
(assert (not (= denominator_VAR 0)))
(assert (< 198 (+ limit_VAR 1)))
(assert (not (= denominator_VAR 0)))
(assert (not (= denominator_VAR 0)))
(assert (< 199 (+ limit_VAR 1)))
(assert (not (= denominator_VAR 0)))
(assert (not (= denominator_VAR 0)))
(assert (< 200 (+ limit_VAR 1)))
(assert (not (= denominator_VAR 0)))
(assert (not (= denominator_VAR 0)))
(assert (< 201 (+ limit_VAR 1)))
(assert (not (= denominator_VAR 0)))
(assert (not (= denominator_VAR 0)))
(assert (< 202 (+ limit_VAR 1)))
(assert (not (= denominator_VAR 0)))
(assert (not (= denominator_VAR 0)))
(assert (< 203 (+ limit_VAR 1)))
(assert (not (= denominator_VAR 0)))
(assert (not (= denominator_VAR 0)))
(assert (< 204 (+ limit_VAR 1)))
(assert (not (= denominator_VAR 0)))
(assert (not (= denominator_VAR 0)))
(assert (< 205 (+ limit_VAR 1)))
(assert (not (= denominator_VAR 0)))
(assert (not (= denominator_VAR 0)))
(assert (< 206 (+ limit_VAR 1)))
(assert (not (= denominator_VAR 0)))
(assert (not (= denominator_VAR 0)))
(assert (< 207 (+ limit_VAR 1)))
(assert (not (= denominator_VAR 0)))
(assert (not (= denominator_VAR 0)))
(assert (< 208 (+ limit_VAR 1)))
(assert (not (= denominator_VAR 0)))
(assert (not (= denominator_VAR 0)))
(assert (< 209 (+ limit_VAR 1)))
(assert (not (= denominator_VAR 0)))
(assert (not (= denominator_VAR 0)))
(assert (< 210 (+ limit_VAR 1)))
(assert (not (= denominator_VAR 0)))
(assert (not (= denominator_VAR 0)))
(assert (< 211 (+ limit_VAR 1)))
(assert (not (= denominator_VAR 0)))
(assert (not (= denominator_VAR 0)))
(assert (< 212 (+ limit_VAR 1)))
(assert (not (= denominator_VAR 0)))
(assert (not (= denominator_VAR 0)))
(assert (< 213 (+ limit_VAR 1)))
(assert (not (= denominator_VAR 0)))
(assert (not (= denominator_VAR 0)))
(assert (< 214 (+ limit_VAR 1)))
(assert (not (= denominator_VAR 0)))
(assert (not (= denominator_VAR 0)))
(assert (< 215 (+ limit_VAR 1)))
(assert (not (= denominator_VAR 0)))
(assert (not (= denominator_VAR 0)))
(assert (< 216 (+ limit_VAR 1)))
(assert (not (= denominator_VAR 0)))
(assert (not (= denominator_VAR 0)))
(assert (< 217 (+ limit_VAR 1)))
(assert (not (= denominator_VAR 0)))
(assert (not (= denominator_VAR 0)))
(assert (< 218 (+ limit_VAR 1)))
(assert (not (= denominator_VAR 0)))
(assert (not (= denominator_VAR 0)))
(assert (< 219 (+ limit_VAR 1)))
(assert (not (= denominator_VAR 0)))
(assert (not (= denominator_VAR 0)))
(assert (< 220 (+ limit_VAR 1)))
(assert (not (= denominator_VAR 0)))
(assert (not (= denominator_VAR 0)))
(assert (< 221 (+ limit_VAR 1)))
(assert (not (= denominator_VAR 0)))
(assert (not (= denominator_VAR 0)))
(assert (< 222 (+ limit_VAR 1)))
(assert (not (= denominator_VAR 0)))
(assert (not (= denominator_VAR 0)))
(assert (< 223 (+ limit_VAR 1)))
(assert (not (= denominator_VAR 0)))
(assert (not (= denominator_VAR 0)))
(assert (< 224 (+ limit_VAR 1)))
(assert (not (= denominator_VAR 0)))
(assert (not (= denominator_VAR 0)))
(assert (< 225 (+ limit_VAR 1)))
(assert (not (= denominator_VAR 0)))
(assert (not (= denominator_VAR 0)))
(assert (< 226 (+ limit_VAR 1)))
(assert (not (= denominator_VAR 0)))
(assert (not (= denominator_VAR 0)))
(assert (< 227 (+ limit_VAR 1)))
(assert (not (= denominator_VAR 0)))
(assert (not (= denominator_VAR 0)))
(assert (< 228 (+ limit_VAR 1)))
(assert (not (= denominator_VAR 0)))
(assert (not (= denominator_VAR 0)))
(assert (< 229 (+ limit_VAR 1)))
(assert (not (= denominator_VAR 0)))
(assert (not (= denominator_VAR 0)))
(assert (< 230 (+ limit_VAR 1)))
(assert (not (= denominator_VAR 0)))
(assert (not (= denominator_VAR 0)))
(assert (< 231 (+ limit_VAR 1)))
(assert (not (= denominator_VAR 0)))
(assert (not (= denominator_VAR 0)))
(assert (< 232 (+ limit_VAR 1)))
(assert (not (= denominator_VAR 0)))
(assert (not (= denominator_VAR 0)))
(assert (< 233 (+ limit_VAR 1)))
(assert (not (= denominator_VAR 0)))
(assert (not (= denominator_VAR 0)))
(assert (< 234 (+ limit_VAR 1)))
(assert (not (= denominator_VAR 0)))
(assert (not (= denominator_VAR 0)))
(assert (< 235 (+ limit_VAR 1)))
(assert (not (= denominator_VAR 0)))
(assert (not (= denominator_VAR 0)))
(assert (< 236 (+ limit_VAR 1)))
(assert (not (= denominator_VAR 0)))
(assert (not (= denominator_VAR 0)))
(assert (< 237 (+ limit_VAR 1)))
(assert (not (= denominator_VAR 0)))
(assert (not (= denominator_VAR 0)))
(assert (< 238 (+ limit_VAR 1)))
(assert (not (= denominator_VAR 0)))
(assert (not (= denominator_VAR 0)))
(assert (< 239 (+ limit_VAR 1)))
(assert (not (= denominator_VAR 0)))
(assert (not (= denominator_VAR 0)))
(assert (< 240 (+ limit_VAR 1)))
(assert (not (= denominator_VAR 0)))
(assert (not (= denominator_VAR 0)))
(assert (< 241 (+ limit_VAR 1)))
(assert (not (= denominator_VAR 0)))
(assert (not (= denominator_VAR 0)))
(assert (< 242 (+ limit_VAR 1)))
(assert (not (= denominator_VAR 0)))
(assert (not (= denominator_VAR 0)))
(assert (< 243 (+ limit_VAR 1)))
(assert (not (= denominator_VAR 0)))
(assert (not (= denominator_VAR 0)))
(assert (< 244 (+ limit_VAR 1)))
(assert (not (= denominator_VAR 0)))
(assert (not (= denominator_VAR 0)))
(assert (< 245 (+ limit_VAR 1)))
(assert (not (= denominator_VAR 0)))
(assert (not (= denominator_VAR 0)))
(assert (< 246 (+ limit_VAR 1)))
(assert (not (= denominator_VAR 0)))
(assert (not (= denominator_VAR 0)))
(assert (< 247 (+ limit_VAR 1)))
(assert (not (= denominator_VAR 0)))
(assert (not (= denominator_VAR 0)))
(assert (< 248 (+ limit_VAR 1)))
(assert (not (= denominator_VAR 0)))
(assert (not (= denominator_VAR 0)))
(assert (< 249 (+ limit_VAR 1)))
(assert (not (= denominator_VAR 0)))
(assert (not (= denominator_VAR 0)))
(assert (< 250 (+ limit_VAR 1)))
(assert (not (= denominator_VAR 0)))
(assert (not (= denominator_VAR 0)))
(assert (< 251 (+ limit_VAR 1)))
(assert (not (= denominator_VAR 0)))
(assert (not (= denominator_VAR 0)))
(assert (< 252 (+ limit_VAR 1)))
(assert (not (= denominator_VAR 0)))
(assert (not (= denominator_VAR 0)))
(assert (< 253 (+ limit_VAR 1)))
(assert (not (= denominator_VAR 0)))
(assert (not (= denominator_VAR 0)))
(assert (< 254 (+ limit_VAR 1)))
(assert (not (= denominator_VAR 0)))
(assert (not (= denominator_VAR 0)))
(assert (< 255 (+ limit_VAR 1)))
(assert (not (= denominator_VAR 0)))
(assert (not (= denominator_VAR 0)))
(assert (< 256 (+ limit_VAR 1)))
(assert (not (= denominator_VAR 0)))
(assert (not (= denominator_VAR 0)))
(assert (< 257 (+ limit_VAR 1)))
(assert (not (= denominator_VAR 0)))
(assert (not (= denominator_VAR 0)))
(assert (< 258 (+ limit_VAR 1)))
(assert (not (= denominator_VAR 0)))
(assert (not (= denominator_VAR 0)))
(assert (< 259 (+ limit_VAR 1)))
(assert (not (= denominator_VAR 0)))
(assert (not (= denominator_VAR 0)))
(assert (< 260 (+ limit_VAR 1)))
(assert (not (= denominator_VAR 0)))
(assert (not (= denominator_VAR 0)))
(assert (< 261 (+ limit_VAR 1)))
(assert (not (= denominator_VAR 0)))
(assert (not (= denominator_VAR 0)))
(assert (< 262 (+ limit_VAR 1)))
(assert (not (= denominator_VAR 0)))
(assert (not (= denominator_VAR 0)))
(assert (< 263 (+ limit_VAR 1)))
(assert (not (= denominator_VAR 0)))
(assert (not (= denominator_VAR 0)))
(assert (< 264 (+ limit_VAR 1)))
(assert (not (= denominator_VAR 0)))
(assert (not (= denominator_VAR 0)))
(assert (< 265 (+ limit_VAR 1)))
(assert (not (= denominator_VAR 0)))
(assert (not (= denominator_VAR 0)))
(assert (< 266 (+ limit_VAR 1)))
(assert (not (= denominator_VAR 0)))
(assert (not (= denominator_VAR 0)))
(assert (< 267 (+ limit_VAR 1)))
(assert (not (= denominator_VAR 0)))
(assert (not (= denominator_VAR 0)))
(assert (< 268 (+ limit_VAR 1)))
(assert (not (= denominator_VAR 0)))
(assert (not (= denominator_VAR 0)))
(assert (< 269 (+ limit_VAR 1)))
(assert (not (= denominator_VAR 0)))
(assert (not (= denominator_VAR 0)))
(assert (< 270 (+ limit_VAR 1)))
(assert (not (= denominator_VAR 0)))
(assert (not (= denominator_VAR 0)))
(assert (< 271 (+ limit_VAR 1)))
(assert (not (= denominator_VAR 0)))
(assert (not (= denominator_VAR 0)))
(assert (< 272 (+ limit_VAR 1)))
(assert (not (= denominator_VAR 0)))
(assert (not (= denominator_VAR 0)))
(assert (< 273 (+ limit_VAR 1)))
(assert (not (= denominator_VAR 0)))
(assert (not (= denominator_VAR 0)))
(assert (< 274 (+ limit_VAR 1)))
(assert (not (= denominator_VAR 0)))
(assert (not (= denominator_VAR 0)))
(assert (< 275 (+ limit_VAR 1)))
(assert (not (= denominator_VAR 0)))
(assert (not (= denominator_VAR 0)))
(assert (< 276 (+ limit_VAR 1)))
(assert (not (= denominator_VAR 0)))
(assert (not (= denominator_VAR 0)))
(assert (< 277 (+ limit_VAR 1)))
(assert (not (= denominator_VAR 0)))
(assert (not (= denominator_VAR 0)))
(assert (< 278 (+ limit_VAR 1)))
(assert (not (= denominator_VAR 0)))
(assert (not (= denominator_VAR 0)))
(assert (< 279 (+ limit_VAR 1)))
(assert (not (= denominator_VAR 0)))
(assert (not (= denominator_VAR 0)))
(assert (< 280 (+ limit_VAR 1)))
(assert (not (= denominator_VAR 0)))
(assert (not (= denominator_VAR 0)))
(assert (< 281 (+ limit_VAR 1)))
(assert (not (= denominator_VAR 0)))
(assert (not (= denominator_VAR 0)))
(assert (< 282 (+ limit_VAR 1)))
(assert (not (= denominator_VAR 0)))
(assert (not (= denominator_VAR 0)))
(assert (< 283 (+ limit_VAR 1)))
(assert (not (= denominator_VAR 0)))
(assert (not (= denominator_VAR 0)))
(assert (< 284 (+ limit_VAR 1)))
(assert (not (= denominator_VAR 0)))
(assert (not (= denominator_VAR 0)))
(assert (< 285 (+ limit_VAR 1)))
(assert (not (= denominator_VAR 0)))
(assert (not (= denominator_VAR 0)))
(assert (< 286 (+ limit_VAR 1)))
(assert (not (= denominator_VAR 0)))
(assert (not (= denominator_VAR 0)))
(assert (< 287 (+ limit_VAR 1)))
(assert (not (= denominator_VAR 0)))
(assert (not (= denominator_VAR 0)))
(assert (< 288 (+ limit_VAR 1)))
(assert (not (= denominator_VAR 0)))
(assert (not (= denominator_VAR 0)))
(assert (< 289 (+ limit_VAR 1)))
(assert (not (= denominator_VAR 0)))
(assert (not (= denominator_VAR 0)))
(assert (< 290 (+ limit_VAR 1)))
(assert (not (= denominator_VAR 0)))
(assert (not (= denominator_VAR 0)))
(assert (< 291 (+ limit_VAR 1)))
(assert (not (= denominator_VAR 0)))
(assert (not (= denominator_VAR 0)))
(assert (< 292 (+ limit_VAR 1)))
(assert (not (= denominator_VAR 0)))
(assert (not (= denominator_VAR 0)))
(assert (< 293 (+ limit_VAR 1)))
(assert (not (= denominator_VAR 0)))
(assert (not (= denominator_VAR 0)))
(assert (< 294 (+ limit_VAR 1)))
(assert (not (= denominator_VAR 0)))
(assert (not (= denominator_VAR 0)))
(assert (< 295 (+ limit_VAR 1)))
(assert (not (= denominator_VAR 0)))
(assert (not (= denominator_VAR 0)))
(assert (< 296 (+ limit_VAR 1)))
(assert (not (= denominator_VAR 0)))
(assert (not (= denominator_VAR 0)))
(assert (< 297 (+ limit_VAR 1)))
(assert (not (= denominator_VAR 0)))
(assert (not (= denominator_VAR 0)))
(assert (< 298 (+ limit_VAR 1)))
(assert (not (= denominator_VAR 0)))
(assert (not (= denominator_VAR 0)))
(assert (< 299 (+ limit_VAR 1)))
(assert (not (= denominator_VAR 0)))
(assert (not (= denominator_VAR 0)))
(assert (< 300 (+ limit_VAR 1)))
(assert (not (= denominator_VAR 0)))
(assert (not (= denominator_VAR 0)))
(assert (< 301 (+ limit_VAR 1)))
(assert (not (= denominator_VAR 0)))
(assert (not (= denominator_VAR 0)))
(assert (< 302 (+ limit_VAR 1)))
(assert (not (= denominator_VAR 0)))
(assert (not (= denominator_VAR 0)))
(assert (< 303 (+ limit_VAR 1)))
(assert (not (= denominator_VAR 0)))
(assert (not (= denominator_VAR 0)))
(assert (< 304 (+ limit_VAR 1)))
(assert (not (= denominator_VAR 0)))
(assert (not (= denominator_VAR 0)))
(assert (< 305 (+ limit_VAR 1)))
(assert (not (= denominator_VAR 0)))
(assert (not (= denominator_VAR 0)))
(assert (< 306 (+ limit_VAR 1)))
(assert (not (= denominator_VAR 0)))
(assert (not (= denominator_VAR 0)))
(assert (< 307 (+ limit_VAR 1)))
(assert (not (= denominator_VAR 0)))
(assert (not (= denominator_VAR 0)))
(assert (< 308 (+ limit_VAR 1)))
(assert (not (= denominator_VAR 0)))
(assert (not (= denominator_VAR 0)))
(assert (< 309 (+ limit_VAR 1)))
(assert (not (= denominator_VAR 0)))
(assert (not (= denominator_VAR 0)))
(assert (< 310 (+ limit_VAR 1)))
(assert (not (= denominator_VAR 0)))
(assert (not (= denominator_VAR 0)))
(assert (< 311 (+ limit_VAR 1)))
(assert (not (= denominator_VAR 0)))
(assert (not (= denominator_VAR 0)))
(assert (< 312 (+ limit_VAR 1)))
(assert (not (= denominator_VAR 0)))
(assert (not (= denominator_VAR 0)))
(assert (< 313 (+ limit_VAR 1)))
(assert (not (= denominator_VAR 0)))
(assert (not (= denominator_VAR 0)))
(assert (< 314 (+ limit_VAR 1)))
(assert (not (= denominator_VAR 0)))
(assert (not (= denominator_VAR 0)))
(assert (< 315 (+ limit_VAR 1)))
(assert (not (= denominator_VAR 0)))
(assert (not (= denominator_VAR 0)))
(assert (< 316 (+ limit_VAR 1)))
(assert (not (= denominator_VAR 0)))
(assert (not (= denominator_VAR 0)))
(assert (< 317 (+ limit_VAR 1)))
(assert (not (= denominator_VAR 0)))
(assert (not (not (= denominator_VAR 0))))
(check-sat)
(get-value (numerator_VAR))
(get-value (denominator_VAR))
(get-value (limit_VAR))
